wmc_benchmarks/WMCBenchSingleMea/portfolioqaoa_nativegates_ibm_qiskit_opt0_3.qasm.cnf
p cnf 318 1277
c p weight 8 -1 0
c p weight -8 1 0
c p weight 10 6.12323399573676603586882014729198302312846062338790031898128063403419218957424163818359375E-17 0
c p weight -10 1 0
c p weight 11 1 0
c p weight -11 1 0
c p weight 12 -1 0
c p weight -12 1 0
c p weight 14 -1 0
c p weight -14 1 0
c p weight 16 0.1291145535742927175082428448149585165083408355712890625 0
c p weight -16 1 0
c p weight 17 -0.9916296849405583646586137547274120151996612548828125 0
c p weight -17 1 0
c p weight 18 -1 0
c p weight -18 1 0
c p weight 20 -1 0
c p weight -20 1 0
c p weight 22 6.12323399573676603586882014729198302312846062338790031898128063403419218957424163818359375E-17 0
c p weight -22 1 0
c p weight 23 1 0
c p weight -23 1 0
c p weight 24 -1 0
c p weight -24 1 0
c p weight 26 -1 0
c p weight -26 1 0
c p weight 28 0.12938488765541034108963458493235521018505096435546875 0
c p weight -28 1 0
c p weight 29 -0.99159444877752156433103891686187125742435455322265625 0
c p weight -29 1 0
c p weight 30 -1 0
c p weight -30 1 0
c p weight 33 -1 0
c p weight -33 1 0
c p weight 35 0.1339213632939420250966833236816455610096454620361328125 0
c p weight -35 1 0
c p weight 36 0.99099196185109994505779695828096009790897369384765625 0
c p weight -36 1 0
c p weight 37 -1 0
c p weight -37 1 0
c p weight 40 -1 0
c p weight -40 1 0
c p weight 42 -1 0
c p weight -42 1 0
c p weight 44 6.12323399573676603586882014729198302312846062338790031898128063403419218957424163818359375E-17 0
c p weight -44 1 0
c p weight 45 1 0
c p weight -45 1 0
c p weight 46 -1 0
c p weight -46 1 0
c p weight 48 -1 0
c p weight -48 1 0
c p weight 50 0.1313573185199058135363969768150127492845058441162109375 0
c p weight -50 1 0
c p weight 51 -0.9913350870776540535445064961095340549945831298828125 0
c p weight -51 1 0
c p weight 52 -1 0
c p weight -52 1 0
c p weight 55 -1 0
c p weight -55 1 0
c p weight 57 0.1338867156814329273384345242448034696280956268310546875 0
c p weight -57 1 0
c p weight 58 0.9909966434675947510868354584090411663055419921875 0
c p weight -58 1 0
c p weight 59 -1 0
c p weight -59 1 0
c p weight 62 -1 0
c p weight -62 1 0
c p weight 64 -1 0
c p weight -64 1 0
c p weight 66 6.12323399573676603586882014729198302312846062338790031898128063403419218957424163818359375E-17 0
c p weight -66 1 0
c p weight 67 1 0
c p weight -67 1 0
c p weight 68 -1 0
c p weight -68 1 0
c p weight 70 -0.7892017778292512719673368337680585682392120361328125 0
c p weight -70 1 0
c p weight 71 -0.61413398690444498395635264387237839400768280029296875 0
c p weight -71 1 0
c p weight 72 -1 0
c p weight -72 1 0
c p weight 74 6.12323399573676603586882014729198302312846062338790031898128063403419218957424163818359375E-17 0
c p weight -74 1 0
c p weight 75 1 0
c p weight -75 1 0
c p weight 76 -1 0
c p weight -76 1 0
c p weight 78 3.0616169978683831411939265144290861071468186371292985459291458028019405901432037353515625E-16 0
c p weight -78 1 0
c p weight 79 1 0
c p weight -79 1 0
c p weight 80 -1 0
c p weight -80 1 0
c p weight 82 0.70726391676921718243420400540344417095184326171875 0
c p weight -82 1 0
c p weight 83 -0.70694961067693196099526176112703979015350341796875 0
c p weight -83 1 0
c p weight 84 -1 0
c p weight -84 1 0
c p weight 87 -1 0
c p weight -87 1 0
c p weight 89 0.1339382662934902323836894311170908622443675994873046875 0
c p weight -89 1 0
c p weight 90 0.9909896774549642461948906202451325953006744384765625 0
c p weight -90 1 0
c p weight 91 -1 0
c p weight -91 1 0
c p weight 94 -1 0
c p weight -94 1 0
c p weight 96 -1 0
c p weight -96 1 0
c p weight 98 6.12323399573676603586882014729198302312846062338790031898128063403419218957424163818359375E-17 0
c p weight -98 1 0
c p weight 99 1 0
c p weight -99 1 0
c p weight 100 -1 0
c p weight -100 1 0
c p weight 102 -0.7892017778292512719673368337680585682392120361328125 0
c p weight -102 1 0
c p weight 103 -0.61413398690444498395635264387237839400768280029296875 0
c p weight -103 1 0
c p weight 104 -1 0
c p weight -104 1 0
c p weight 106 6.12323399573676603586882014729198302312846062338790031898128063403419218957424163818359375E-17 0
c p weight -106 1 0
c p weight 107 1 0
c p weight -107 1 0
c p weight 108 -1 0
c p weight -108 1 0
c p weight 110 3.0616169978683831411939265144290861071468186371292985459291458028019405901432037353515625E-16 0
c p weight -110 1 0
c p weight 111 1 0
c p weight -111 1 0
c p weight 112 -1 0
c p weight -112 1 0
c p weight 114 0.70736890041453381883229667437262833118438720703125 0
c p weight -114 1 0
c p weight 115 -0.706844564756873072752796360873617231845855712890625 0
c p weight -115 1 0
c p weight 116 -1 0
c p weight -116 1 0
c p weight 119 -1 0
c p weight -119 1 0
c p weight 121 0.7091288634279135916216318946680985391139984130859375 0
c p weight -121 1 0
c p weight 122 0.705078899878187836947063260595314204692840576171875 0
c p weight -122 1 0
c p weight 123 -1 0
c p weight -123 1 0
c p weight 126 -1 0
c p weight -126 1 0
c p weight 128 -1 0
c p weight -128 1 0
c p weight 130 6.12323399573676603586882014729198302312846062338790031898128063403419218957424163818359375E-17 0
c p weight -130 1 0
c p weight 131 1 0
c p weight -131 1 0
c p weight 132 -1 0
c p weight -132 1 0
c p weight 134 -0.7892017778292512719673368337680585682392120361328125 0
c p weight -134 1 0
c p weight 135 -0.61413398690444498395635264387237839400768280029296875 0
c p weight -135 1 0
c p weight 136 -1 0
c p weight -136 1 0
c p weight 138 6.12323399573676603586882014729198302312846062338790031898128063403419218957424163818359375E-17 0
c p weight -138 1 0
c p weight 139 1 0
c p weight -139 1 0
c p weight 140 -1 0
c p weight -140 1 0
c p weight 142 3.0616169978683831411939265144290861071468186371292985459291458028019405901432037353515625E-16 0
c p weight -142 1 0
c p weight 143 1 0
c p weight -143 1 0
c p weight 144 -1 0
c p weight -144 1 0
c p weight 146 0.7081345306676947171098390754195861518383026123046875 0
c p weight -146 1 0
c p weight 147 -0.70607753573955578385579201494692824780941009521484375 0
c p weight -147 1 0
c p weight 148 -1 0
c p weight -148 1 0
c p weight 151 -1 0
c p weight -151 1 0
c p weight 153 0.7091154342170238322751174564473330974578857421875 0
c p weight -153 1 0
c p weight 154 0.705092405969034441426401826902292668819427490234375 0
c p weight -154 1 0
c p weight 155 -1 0
c p weight -155 1 0
c p weight 158 -1 0
c p weight -158 1 0
c p weight 160 -1 0
c p weight -160 1 0
c p weight 162 6.12323399573676603586882014729198302312846062338790031898128063403419218957424163818359375E-17 0
c p weight -162 1 0
c p weight 163 1 0
c p weight -163 1 0
c p weight 164 -1 0
c p weight -164 1 0
c p weight 166 0.2121697322334539503874140109473955817520618438720703125 0
c p weight -166 1 0
c p weight 167 -0.9772328303551740535937142340117134153842926025390625 0
c p weight -167 1 0
c p weight 168 -1 0
c p weight -168 1 0
c p weight 170 6.12323399573676603586882014729198302312846062338790031898128063403419218957424163818359375E-17 0
c p weight -170 1 0
c p weight 171 1 0
c p weight -171 1 0
c p weight 172 -1 0
c p weight -172 1 0
c p weight 174 3.0616169978683831411939265144290861071468186371292985459291458028019405901432037353515625E-16 0
c p weight -174 1 0
c p weight 175 1 0
c p weight -175 1 0
c p weight 176 -1 0
c p weight -176 1 0
c p weight 178 0.76560860682637865703981105980346910655498504638671875 0
c p weight -178 1 0
c p weight 179 -0.6433066618288447724438583463779650628566741943359375 0
c p weight -179 1 0
c p weight 180 -1 0
c p weight -180 1 0
c p weight 183 -1 0
c p weight -183 1 0
c p weight 185 0.7091354148608193241898334235884249210357666015625 0
c p weight -185 1 0
c p weight 186 0.70507231075271536990811682699131779372692108154296875 0
c p weight -186 1 0
c p weight 187 -1 0
c p weight -187 1 0
c p weight 190 -1 0
c p weight -190 1 0
c p weight 192 -1 0
c p weight -192 1 0
c p weight 194 6.12323399573676603586882014729198302312846062338790031898128063403419218957424163818359375E-17 0
c p weight -194 1 0
c p weight 195 1 0
c p weight -195 1 0
c p weight 196 -1 0
c p weight -196 1 0
c p weight 198 0.2121697322334539503874140109473955817520618438720703125 0
c p weight -198 1 0
c p weight 199 -0.9772328303551740535937142340117134153842926025390625 0
c p weight -199 1 0
c p weight 200 -1 0
c p weight -200 1 0
c p weight 202 6.12323399573676603586882014729198302312846062338790031898128063403419218957424163818359375E-17 0
c p weight -202 1 0
c p weight 203 1 0
c p weight -203 1 0
c p weight 204 -1 0
c p weight -204 1 0
c p weight 206 3.0616169978683831411939265144290861071468186371292985459291458028019405901432037353515625E-16 0
c p weight -206 1 0
c p weight 207 1 0
c p weight -207 1 0
c p weight 208 -1 0
c p weight -208 1 0
c p weight 210 0.76492867717904233781922584967105649411678314208984375 0
c p weight -210 1 0
c p weight 211 -0.644114988825070344802270483341999351978302001953125 0
c p weight -211 1 0
c p weight 212 -1 0
c p weight -212 1 0
c p weight 215 -1 0
c p weight -215 1 0
c p weight 217 0.75338832493054608274718475513509474694728851318359375 0
c p weight -217 1 0
c p weight 218 0.6575758753621865349003883238765411078929901123046875 0
c p weight -218 1 0
c p weight 219 -1 0
c p weight -219 1 0
c p weight 222 -1 0
c p weight -222 1 0
c p weight 224 -1 0
c p weight -224 1 0
c p weight 226 6.12323399573676603586882014729198302312846062338790031898128063403419218957424163818359375E-17 0
c p weight -226 1 0
c p weight 227 1 0
c p weight -227 1 0
c p weight 228 -1 0
c p weight -228 1 0
c p weight 230 0.2121697322334539503874140109473955817520618438720703125 0
c p weight -230 1 0
c p weight 231 -0.9772328303551740535937142340117134153842926025390625 0
c p weight -231 1 0
c p weight 232 -1 0
c p weight -232 1 0
c p weight 234 6.12323399573676603586882014729198302312846062338790031898128063403419218957424163818359375E-17 0
c p weight -234 1 0
c p weight 235 1 0
c p weight -235 1 0
c p weight 236 -1 0
c p weight -236 1 0
c p weight 238 3.0616169978683831411939265144290861071468186371292985459291458028019405901432037353515625E-16 0
c p weight -238 1 0
c p weight 239 1 0
c p weight -239 1 0
c p weight 240 -1 0
c p weight -240 1 0
c p weight 242 0.75994120175872248434956190976663492619991302490234375 0
c p weight -242 1 0
c p weight 243 -0.64999182292511081815433726660558022558689117431640625 0
c p weight -243 1 0
c p weight 244 -1 0
c p weight -244 1 0
c p weight 247 -1 0
c p weight -247 1 0
c p weight 249 0.7534773943156543030141847339109517633914947509765625 0
c p weight -249 1 0
c p weight 250 0.6574738141213625208791881959768943488597869873046875 0
c p weight -250 1 0
c p weight 251 -1 0
c p weight -251 1 0
c p weight 254 -1 0
c p weight -254 1 0
c p weight 256 -1 0
c p weight -256 1 0
c p weight 258 6.12323399573676603586882014729198302312846062338790031898128063403419218957424163818359375E-17 0
c p weight -258 1 0
c p weight 259 1 0
c p weight -259 1 0
c p weight 260 -1 0
c p weight -260 1 0
c p weight 262 -0.5884108499946913983791318969451822340488433837890625 0
c p weight -262 1 0
c p weight 263 0.80856210126899019652313427286571823060512542724609375 0
c p weight -263 1 0
c p weight 264 -1 0
c p weight -264 1 0
c p weight 266 6.12323399573676603586882014729198302312846062338790031898128063403419218957424163818359375E-17 0
c p weight -266 1 0
c p weight 267 1 0
c p weight -267 1 0
c p weight 268 -1 0
c p weight -268 1 0
c p weight 270 3.0616169978683831411939265144290861071468186371292985459291458028019405901432037353515625E-16 0
c p weight -270 1 0
c p weight 271 1 0
c p weight -271 1 0
c p weight 272 -1 0
c p weight -272 1 0
c p weight 275 -1 0
c p weight -275 1 0
c p weight 277 0.7533448668449367335853139593382366001605987548828125 0
c p weight -277 1 0
c p weight 278 0.657625662210945538532769205630756914615631103515625 0
c p weight -278 1 0
c p weight 279 -1 0
c p weight -279 1 0
c p weight 282 -1 0
c p weight -282 1 0
c p weight 284 -1 0
c p weight -284 1 0
c p weight 286 6.12323399573676603586882014729198302312846062338790031898128063403419218957424163818359375E-17 0
c p weight -286 1 0
c p weight 287 1 0
c p weight -287 1 0
c p weight 288 -1 0
c p weight -288 1 0
c p weight 290 -0.5884108499946913983791318969451822340488433837890625 0
c p weight -290 1 0
c p weight 291 0.80856210126899019652313427286571823060512542724609375 0
c p weight -291 1 0
c p weight 292 -1 0
c p weight -292 1 0
c p weight 294 6.12323399573676603586882014729198302312846062338790031898128063403419218957424163818359375E-17 0
c p weight -294 1 0
c p weight 295 1 0
c p weight -295 1 0
c p weight 296 -1 0
c p weight -296 1 0
c p weight 298 3.0616169978683831411939265144290861071468186371292985459291458028019405901432037353515625E-16 0
c p weight -298 1 0
c p weight 299 1 0
c p weight -299 1 0
c p weight 300 -1 0
c p weight -300 1 0
c p weight 302 -1 0
c p weight -302 1 0
c p weight 304 6.12323399573676603586882014729198302312846062338790031898128063403419218957424163818359375E-17 0
c p weight -304 1 0
c p weight 305 1 0
c p weight -305 1 0
c p weight 306 -1 0
c p weight -306 1 0
c p weight 308 -0.5884108499946913983791318969451822340488433837890625 0
c p weight -308 1 0
c p weight 309 0.80856210126899019652313427286571823060512542724609375 0
c p weight -309 1 0
c p weight 310 -1 0
c p weight -310 1 0
c p weight 312 6.12323399573676603586882014729198302312846062338790031898128063403419218957424163818359375E-17 0
c p weight -312 1 0
c p weight 313 1 0
c p weight -313 1 0
c p weight 314 -1 0
c p weight -314 1 0
c p weight 316 3.0616169978683831411939265144290861071468186371292985459291458028019405901432037353515625E-16 0
c p weight -316 1 0
c p weight 317 1 0
c p weight -317 1 0
c p weight 318 -1 0
c p weight -318 1 0
-5 0
-3 0
-1 0
7 1 -2 0
7 -1 2 0
-7 1 2 0
-7 -1 -2 0
-8 1 0
-8 2 0
8 -1 -2 0
9 -1 7 0
-9 1 7 0
-10 7 0
9 -10 -1 0
-9 -10 1 0
9 10 1 -7 0
-9 10 -1 -7 0
-11 7 0
9 -11 1 0
-9 -11 -1 0
9 11 -1 -7 0
-9 11 1 -7 0
-12 9 0
-12 7 0
-12 -1 0
12 -9 1 -7 0
13 9 -7 0
13 -9 7 0
-13 9 7 0
-13 -9 -7 0
-14 9 0
-14 7 0
14 -9 -7 0
15 9 -13 0
-15 9 13 0
-16 9 0
15 -16 -13 0
-15 -16 13 0
15 16 -9 13 0
-15 16 -9 -13 0
-17 9 0
15 -17 13 0
-15 -17 -13 0
15 17 -9 -13 0
-15 17 -9 13 0
-18 9 0
-18 13 0
-18 -15 0
18 15 -9 -13 0
19 3 -4 0
19 -3 4 0
-19 3 4 0
-19 -3 -4 0
-20 3 0
-20 4 0
20 -3 -4 0
21 -3 19 0
-21 3 19 0
-22 19 0
21 -22 -3 0
-21 -22 3 0
21 22 3 -19 0
-21 22 -3 -19 0
-23 19 0
21 -23 3 0
-21 -23 -3 0
21 23 -3 -19 0
-21 23 3 -19 0
-24 21 0
-24 19 0
-24 -3 0
24 -21 3 -19 0
25 21 -19 0
25 -21 19 0
-25 21 19 0
-25 -21 -19 0
-26 21 0
-26 19 0
26 -21 -19 0
27 21 -25 0
-27 21 25 0
-28 21 0
27 -28 -25 0
-27 -28 25 0
27 28 -21 25 0
-27 28 -21 -25 0
-29 21 0
27 -29 25 0
-27 -29 -25 0
27 29 -21 -25 0
-27 29 -21 25 0
-30 21 0
-30 25 0
-30 -27 0
30 27 -21 -25 0
31 9 -21 0
31 -9 21 0
-31 9 21 0
-31 -9 -21 0
32 15 -27 0
32 -15 27 0
-32 15 27 0
-32 -15 -27 0
-33 9 0
-33 27 0
-33 21 -15 0
-33 -21 15 0
33 -9 21 15 -27 0
33 -9 -21 -15 -27 0
34 31 -27 0
-34 31 27 0
-35 31 0
34 -35 -27 0
-34 -35 27 0
34 35 -31 27 0
-34 35 -31 -27 0
-36 31 0
34 -36 27 0
-34 -36 -27 0
34 36 -31 -27 0
-34 36 -31 27 0
-37 31 0
-37 27 0
-37 -34 0
37 34 -31 -27 0
38 9 -31 0
38 -9 31 0
-38 9 31 0
-38 -9 -31 0
39 32 -34 0
39 -32 34 0
-39 32 34 0
-39 -32 -34 0
-40 9 0
-40 34 0
-40 31 -32 0
-40 -31 32 0
40 -9 31 32 -34 0
40 -9 -31 -32 -34 0
41 5 -6 0
41 -5 6 0
-41 5 6 0
-41 -5 -6 0
-42 5 0
-42 6 0
42 -5 -6 0
43 -5 41 0
-43 5 41 0
-44 41 0
43 -44 -5 0
-43 -44 5 0
43 44 5 -41 0
-43 44 -5 -41 0
-45 41 0
43 -45 5 0
-43 -45 -5 0
43 45 -5 -41 0
-43 45 5 -41 0
-46 43 0
-46 41 0
-46 -5 0
46 -43 5 -41 0
47 43 -41 0
47 -43 41 0
-47 43 41 0
-47 -43 -41 0
-48 43 0
-48 41 0
48 -43 -41 0
49 43 -47 0
-49 43 47 0
-50 43 0
49 -50 -47 0
-49 -50 47 0
49 50 -43 47 0
-49 50 -43 -47 0
-51 43 0
49 -51 47 0
-49 -51 -47 0
49 51 -43 -47 0
-49 51 -43 47 0
-52 43 0
-52 47 0
-52 -49 0
52 49 -43 -47 0
53 9 -43 0
53 -9 43 0
-53 9 43 0
-53 -9 -43 0
54 39 -49 0
54 -39 49 0
-54 39 49 0
-54 -39 -49 0
-55 9 0
-55 49 0
-55 43 -39 0
-55 -43 39 0
55 -9 43 39 -49 0
55 -9 -43 -39 -49 0
56 53 -49 0
-56 53 49 0
-57 53 0
56 -57 -49 0
-56 -57 49 0
56 57 -53 49 0
-56 57 -53 -49 0
-58 53 0
56 -58 49 0
-56 -58 -49 0
56 58 -53 -49 0
-56 58 -53 49 0
-59 53 0
-59 49 0
-59 -56 0
59 56 -53 -49 0
60 9 -53 0
60 -9 53 0
-60 9 53 0
-60 -9 -53 0
61 54 -56 0
61 -54 56 0
-61 54 56 0
-61 -54 -56 0
-62 9 0
-62 56 0
-62 53 -54 0
-62 -53 54 0
62 -9 53 54 -56 0
62 -9 -53 -54 -56 0
63 9 -61 0
63 -9 61 0
-63 9 61 0
-63 -9 -61 0
-64 9 0
-64 61 0
64 -9 -61 0
65 -9 63 0
-65 9 63 0
-66 63 0
65 -66 -9 0
-65 -66 9 0
65 66 9 -63 0
-65 66 -9 -63 0
-67 63 0
65 -67 9 0
-65 -67 -9 0
65 67 -9 -63 0
-65 67 9 -63 0
-68 65 0
-68 63 0
-68 -9 0
68 -65 9 -63 0
69 65 -63 0
-69 65 63 0
-70 65 0
69 -70 -63 0
-69 -70 63 0
69 70 -65 63 0
-69 70 -65 -63 0
-71 65 0
69 -71 63 0
-69 -71 -63 0
69 71 -65 -63 0
-69 71 -65 63 0
-72 65 0
-72 63 0
-72 -69 0
72 69 -65 -63 0
73 -65 69 0
-73 65 69 0
-74 69 0
73 -74 -65 0
-73 -74 65 0
73 74 65 -69 0
-73 74 -65 -69 0
-75 69 0
73 -75 65 0
-73 -75 -65 0
73 75 -65 -69 0
-73 75 65 -69 0
-76 73 0
-76 69 0
-76 -65 0
76 -73 65 -69 0
77 73 -69 0
-77 73 69 0
-78 73 0
77 -78 -69 0
-77 -78 69 0
77 78 -73 69 0
-77 78 -73 -69 0
-79 73 0
77 -79 69 0
-77 -79 -69 0
77 79 -73 -69 0
-77 79 -73 69 0
-80 73 0
-80 69 0
-80 -77 0
80 77 -73 -69 0
81 73 -77 0
-81 73 77 0
-82 73 0
81 -82 -77 0
-81 -82 77 0
81 82 -73 77 0
-81 82 -73 -77 0
-83 73 0
81 -83 77 0
-81 -83 -77 0
81 83 -73 -77 0
-81 83 -73 77 0
-84 73 0
-84 77 0
-84 -81 0
84 81 -73 -77 0
85 38 -60 0
85 -38 60 0
-85 38 60 0
-85 -38 -60 0
86 34 -56 0
86 -34 56 0
-86 34 56 0
-86 -34 -56 0
-87 38 0
-87 56 0
-87 60 -34 0
-87 -60 34 0
87 -38 60 34 -56 0
87 -38 -60 -34 -56 0
88 85 -56 0
-88 85 56 0
-89 85 0
88 -89 -56 0
-88 -89 56 0
88 89 -85 56 0
-88 89 -85 -56 0
-90 85 0
88 -90 56 0
-88 -90 -56 0
88 90 -85 -56 0
-88 90 -85 56 0
-91 85 0
-91 56 0
-91 -88 0
91 88 -85 -56 0
92 38 -85 0
92 -38 85 0
-92 38 85 0
-92 -38 -85 0
93 86 -88 0
93 -86 88 0
-93 86 88 0
-93 -86 -88 0
-94 38 0
-94 88 0
-94 85 -86 0
-94 -85 86 0
94 -38 85 86 -88 0
94 -38 -85 -86 -88 0
95 38 -93 0
95 -38 93 0
-95 38 93 0
-95 -38 -93 0
-96 38 0
-96 93 0
96 -38 -93 0
97 -38 95 0
-97 38 95 0
-98 95 0
97 -98 -38 0
-97 -98 38 0
97 98 38 -95 0
-97 98 -38 -95 0
-99 95 0
97 -99 38 0
-97 -99 -38 0
97 99 -38 -95 0
-97 99 38 -95 0
-100 97 0
-100 95 0
-100 -38 0
100 -97 38 -95 0
101 97 -95 0
-101 97 95 0
-102 97 0
101 -102 -95 0
-101 -102 95 0
101 102 -97 95 0
-101 102 -97 -95 0
-103 97 0
101 -103 95 0
-101 -103 -95 0
101 103 -97 -95 0
-101 103 -97 95 0
-104 97 0
-104 95 0
-104 -101 0
104 101 -97 -95 0
105 -97 101 0
-105 97 101 0
-106 101 0
105 -106 -97 0
-105 -106 97 0
105 106 97 -101 0
-105 106 -97 -101 0
-107 101 0
105 -107 97 0
-105 -107 -97 0
105 107 -97 -101 0
-105 107 97 -101 0
-108 105 0
-108 101 0
-108 -97 0
108 -105 97 -101 0
109 105 -101 0
-109 105 101 0
-110 105 0
109 -110 -101 0
-109 -110 101 0
109 110 -105 101 0
-109 110 -105 -101 0
-111 105 0
109 -111 101 0
-109 -111 -101 0
109 111 -105 -101 0
-109 111 -105 101 0
-112 105 0
-112 101 0
-112 -109 0
112 109 -105 -101 0
113 105 -109 0
-113 105 109 0
-114 105 0
113 -114 -109 0
-113 -114 109 0
113 114 -105 109 0
-113 114 -105 -109 0
-115 105 0
113 -115 109 0
-113 -115 -109 0
113 115 -105 -109 0
-113 115 -105 109 0
-116 105 0
-116 109 0
-116 -113 0
116 113 -105 -109 0
117 73 -105 0
117 -73 105 0
-117 73 105 0
-117 -73 -105 0
118 81 -113 0
118 -81 113 0
-118 81 113 0
-118 -81 -113 0
-119 73 0
-119 113 0
-119 105 -81 0
-119 -105 81 0
119 -73 105 81 -113 0
119 -73 -105 -81 -113 0
120 117 -113 0
-120 117 113 0
-121 117 0
120 -121 -113 0
-120 -121 113 0
120 121 -117 113 0
-120 121 -117 -113 0
-122 117 0
120 -122 113 0
-120 -122 -113 0
120 122 -117 -113 0
-120 122 -117 113 0
-123 117 0
-123 113 0
-123 -120 0
123 120 -117 -113 0
124 73 -117 0
124 -73 117 0
-124 73 117 0
-124 -73 -117 0
125 118 -120 0
125 -118 120 0
-125 118 120 0
-125 -118 -120 0
-126 73 0
-126 120 0
-126 117 -118 0
-126 -117 118 0
126 -73 117 118 -120 0
126 -73 -117 -118 -120 0
127 92 -88 0
127 -92 88 0
-127 92 88 0
-127 -92 -88 0
-128 92 0
-128 88 0
128 -92 -88 0
129 -92 127 0
-129 92 127 0
-130 127 0
129 -130 -92 0
-129 -130 92 0
129 130 92 -127 0
-129 130 -92 -127 0
-131 127 0
129 -131 92 0
-129 -131 -92 0
129 131 -92 -127 0
-129 131 92 -127 0
-132 129 0
-132 127 0
-132 -92 0
132 -129 92 -127 0
133 129 -127 0
-133 129 127 0
-134 129 0
133 -134 -127 0
-133 -134 127 0
133 134 -129 127 0
-133 134 -129 -127 0
-135 129 0
133 -135 127 0
-133 -135 -127 0
133 135 -129 -127 0
-133 135 -129 127 0
-136 129 0
-136 127 0
-136 -133 0
136 133 -129 -127 0
137 -129 133 0
-137 129 133 0
-138 133 0
137 -138 -129 0
-137 -138 129 0
137 138 129 -133 0
-137 138 -129 -133 0
-139 133 0
137 -139 129 0
-137 -139 -129 0
137 139 -129 -133 0
-137 139 129 -133 0
-140 137 0
-140 133 0
-140 -129 0
140 -137 129 -133 0
141 137 -133 0
-141 137 133 0
-142 137 0
141 -142 -133 0
-141 -142 133 0
141 142 -137 133 0
-141 142 -137 -133 0
-143 137 0
141 -143 133 0
-141 -143 -133 0
141 143 -137 -133 0
-141 143 -137 133 0
-144 137 0
-144 133 0
-144 -141 0
144 141 -137 -133 0
145 137 -141 0
-145 137 141 0
-146 137 0
145 -146 -141 0
-145 -146 141 0
145 146 -137 141 0
-145 146 -137 -141 0
-147 137 0
145 -147 141 0
-145 -147 -141 0
145 147 -137 -141 0
-145 147 -137 141 0
-148 137 0
-148 141 0
-148 -145 0
148 145 -137 -141 0
149 73 -137 0
149 -73 137 0
-149 73 137 0
-149 -73 -137 0
150 125 -145 0
150 -125 145 0
-150 125 145 0
-150 -125 -145 0
-151 73 0
-151 145 0
-151 137 -125 0
-151 -137 125 0
151 -73 137 125 -145 0
151 -73 -137 -125 -145 0
152 149 -145 0
-152 149 145 0
-153 149 0
152 -153 -145 0
-152 -153 145 0
152 153 -149 145 0
-152 153 -149 -145 0
-154 149 0
152 -154 145 0
-152 -154 -145 0
152 154 -149 -145 0
-152 154 -149 145 0
-155 149 0
-155 145 0
-155 -152 0
155 152 -149 -145 0
156 73 -149 0
156 -73 149 0
-156 73 149 0
-156 -73 -149 0
157 150 -152 0
157 -150 152 0
-157 150 152 0
-157 -150 -152 0
-158 73 0
-158 152 0
-158 149 -150 0
-158 -149 150 0
158 -73 149 150 -152 0
158 -73 -149 -150 -152 0
159 73 -157 0
159 -73 157 0
-159 73 157 0
-159 -73 -157 0
-160 73 0
-160 157 0
160 -73 -157 0
161 -73 159 0
-161 73 159 0
-162 159 0
161 -162 -73 0
-161 -162 73 0
161 162 73 -159 0
-161 162 -73 -159 0
-163 159 0
161 -163 73 0
-161 -163 -73 0
161 163 -73 -159 0
-161 163 73 -159 0
-164 161 0
-164 159 0
-164 -73 0
164 -161 73 -159 0
165 161 -159 0
-165 161 159 0
-166 161 0
165 -166 -159 0
-165 -166 159 0
165 166 -161 159 0
-165 166 -161 -159 0
-167 161 0
165 -167 159 0
-165 -167 -159 0
165 167 -161 -159 0
-165 167 -161 159 0
-168 161 0
-168 159 0
-168 -165 0
168 165 -161 -159 0
169 -161 165 0
-169 161 165 0
-170 165 0
169 -170 -161 0
-169 -170 161 0
169 170 161 -165 0
-169 170 -161 -165 0
-171 165 0
169 -171 161 0
-169 -171 -161 0
169 171 -161 -165 0
-169 171 161 -165 0
-172 169 0
-172 165 0
-172 -161 0
172 -169 161 -165 0
173 169 -165 0
-173 169 165 0
-174 169 0
173 -174 -165 0
-173 -174 165 0
173 174 -169 165 0
-173 174 -169 -165 0
-175 169 0
173 -175 165 0
-173 -175 -165 0
173 175 -169 -165 0
-173 175 -169 165 0
-176 169 0
-176 165 0
-176 -173 0
176 173 -169 -165 0
177 169 -173 0
-177 169 173 0
-178 169 0
177 -178 -173 0
-177 -178 173 0
177 178 -169 173 0
-177 178 -169 -173 0
-179 169 0
177 -179 173 0
-177 -179 -173 0
177 179 -169 -173 0
-177 179 -169 173 0
-180 169 0
-180 173 0
-180 -177 0
180 177 -169 -173 0
181 124 -156 0
181 -124 156 0
-181 124 156 0
-181 -124 -156 0
182 120 -152 0
182 -120 152 0
-182 120 152 0
-182 -120 -152 0
-183 124 0
-183 152 0
-183 156 -120 0
-183 -156 120 0
183 -124 156 120 -152 0
183 -124 -156 -120 -152 0
184 181 -152 0
-184 181 152 0
-185 181 0
184 -185 -152 0
-184 -185 152 0
184 185 -181 152 0
-184 185 -181 -152 0
-186 181 0
184 -186 152 0
-184 -186 -152 0
184 186 -181 -152 0
-184 186 -181 152 0
-187 181 0
-187 152 0
-187 -184 0
187 184 -181 -152 0
188 124 -181 0
188 -124 181 0
-188 124 181 0
-188 -124 -181 0
189 182 -184 0
189 -182 184 0
-189 182 184 0
-189 -182 -184 0
-190 124 0
-190 184 0
-190 181 -182 0
-190 -181 182 0
190 -124 181 182 -184 0
190 -124 -181 -182 -184 0
191 124 -189 0
191 -124 189 0
-191 124 189 0
-191 -124 -189 0
-192 124 0
-192 189 0
192 -124 -189 0
193 -124 191 0
-193 124 191 0
-194 191 0
193 -194 -124 0
-193 -194 124 0
193 194 124 -191 0
-193 194 -124 -191 0
-195 191 0
193 -195 124 0
-193 -195 -124 0
193 195 -124 -191 0
-193 195 124 -191 0
-196 193 0
-196 191 0
-196 -124 0
196 -193 124 -191 0
197 193 -191 0
-197 193 191 0
-198 193 0
197 -198 -191 0
-197 -198 191 0
197 198 -193 191 0
-197 198 -193 -191 0
-199 193 0
197 -199 191 0
-197 -199 -191 0
197 199 -193 -191 0
-197 199 -193 191 0
-200 193 0
-200 191 0
-200 -197 0
200 197 -193 -191 0
201 -193 197 0
-201 193 197 0
-202 197 0
201 -202 -193 0
-201 -202 193 0
201 202 193 -197 0
-201 202 -193 -197 0
-203 197 0
201 -203 193 0
-201 -203 -193 0
201 203 -193 -197 0
-201 203 193 -197 0
-204 201 0
-204 197 0
-204 -193 0
204 -201 193 -197 0
205 201 -197 0
-205 201 197 0
-206 201 0
205 -206 -197 0
-205 -206 197 0
205 206 -201 197 0
-205 206 -201 -197 0
-207 201 0
205 -207 197 0
-205 -207 -197 0
205 207 -201 -197 0
-205 207 -201 197 0
-208 201 0
-208 197 0
-208 -205 0
208 205 -201 -197 0
209 201 -205 0
-209 201 205 0
-210 201 0
209 -210 -205 0
-209 -210 205 0
209 210 -201 205 0
-209 210 -201 -205 0
-211 201 0
209 -211 205 0
-209 -211 -205 0
209 211 -201 -205 0
-209 211 -201 205 0
-212 201 0
-212 205 0
-212 -209 0
212 209 -201 -205 0
213 169 -201 0
213 -169 201 0
-213 169 201 0
-213 -169 -201 0
214 177 -209 0
214 -177 209 0
-214 177 209 0
-214 -177 -209 0
-215 169 0
-215 209 0
-215 201 -177 0
-215 -201 177 0
215 -169 201 177 -209 0
215 -169 -201 -177 -209 0
216 213 -209 0
-216 213 209 0
-217 213 0
216 -217 -209 0
-216 -217 209 0
216 217 -213 209 0
-216 217 -213 -209 0
-218 213 0
216 -218 209 0
-216 -218 -209 0
216 218 -213 -209 0
-216 218 -213 209 0
-219 213 0
-219 209 0
-219 -216 0
219 216 -213 -209 0
220 169 -213 0
220 -169 213 0
-220 169 213 0
-220 -169 -213 0
221 214 -216 0
221 -214 216 0
-221 214 216 0
-221 -214 -216 0
-222 169 0
-222 216 0
-222 213 -214 0
-222 -213 214 0
222 -169 213 214 -216 0
222 -169 -213 -214 -216 0
223 188 -184 0
223 -188 184 0
-223 188 184 0
-223 -188 -184 0
-224 188 0
-224 184 0
224 -188 -184 0
225 -188 223 0
-225 188 223 0
-226 223 0
225 -226 -188 0
-225 -226 188 0
225 226 188 -223 0
-225 226 -188 -223 0
-227 223 0
225 -227 188 0
-225 -227 -188 0
225 227 -188 -223 0
-225 227 188 -223 0
-228 225 0
-228 223 0
-228 -188 0
228 -225 188 -223 0
229 225 -223 0
-229 225 223 0
-230 225 0
229 -230 -223 0
-229 -230 223 0
229 230 -225 223 0
-229 230 -225 -223 0
-231 225 0
229 -231 223 0
-229 -231 -223 0
229 231 -225 -223 0
-229 231 -225 223 0
-232 225 0
-232 223 0
-232 -229 0
232 229 -225 -223 0
233 -225 229 0
-233 225 229 0
-234 229 0
233 -234 -225 0
-233 -234 225 0
233 234 225 -229 0
-233 234 -225 -229 0
-235 229 0
233 -235 225 0
-233 -235 -225 0
233 235 -225 -229 0
-233 235 225 -229 0
-236 233 0
-236 229 0
-236 -225 0
236 -233 225 -229 0
237 233 -229 0
-237 233 229 0
-238 233 0
237 -238 -229 0
-237 -238 229 0
237 238 -233 229 0
-237 238 -233 -229 0
-239 233 0
237 -239 229 0
-237 -239 -229 0
237 239 -233 -229 0
-237 239 -233 229 0
-240 233 0
-240 229 0
-240 -237 0
240 237 -233 -229 0
241 233 -237 0
-241 233 237 0
-242 233 0
241 -242 -237 0
-241 -242 237 0
241 242 -233 237 0
-241 242 -233 -237 0
-243 233 0
241 -243 237 0
-241 -243 -237 0
241 243 -233 -237 0
-241 243 -233 237 0
-244 233 0
-244 237 0
-244 -241 0
244 241 -233 -237 0
245 169 -233 0
245 -169 233 0
-245 169 233 0
-245 -169 -233 0
246 221 -241 0
246 -221 241 0
-246 221 241 0
-246 -221 -241 0
-247 169 0
-247 241 0
-247 233 -221 0
-247 -233 221 0
247 -169 233 221 -241 0
247 -169 -233 -221 -241 0
248 245 -241 0
-248 245 241 0
-249 245 0
248 -249 -241 0
-248 -249 241 0
248 249 -245 241 0
-248 249 -245 -241 0
-250 245 0
248 -250 241 0
-248 -250 -241 0
248 250 -245 -241 0
-248 250 -245 241 0
-251 245 0
-251 241 0
-251 -248 0
251 248 -245 -241 0
252 169 -245 0
252 -169 245 0
-252 169 245 0
-252 -169 -245 0
253 246 -248 0
253 -246 248 0
-253 246 248 0
-253 -246 -248 0
-254 169 0
-254 248 0
-254 245 -246 0
-254 -245 246 0
254 -169 245 246 -248 0
254 -169 -245 -246 -248 0
255 169 -253 0
255 -169 253 0
-255 169 253 0
-255 -169 -253 0
-256 169 0
-256 253 0
256 -169 -253 0
257 -169 255 0
-257 169 255 0
-258 255 0
257 -258 -169 0
-257 -258 169 0
257 258 169 -255 0
-257 258 -169 -255 0
-259 255 0
257 -259 169 0
-257 -259 -169 0
257 259 -169 -255 0
-257 259 169 -255 0
-260 257 0
-260 255 0
-260 -169 0
260 -257 169 -255 0
261 257 -255 0
-261 257 255 0
-262 257 0
261 -262 -255 0
-261 -262 255 0
261 262 -257 255 0
-261 262 -257 -255 0
-263 257 0
261 -263 255 0
-261 -263 -255 0
261 263 -257 -255 0
-261 263 -257 255 0
-264 257 0
-264 255 0
-264 -261 0
264 261 -257 -255 0
265 -257 261 0
-265 257 261 0
-266 261 0
265 -266 -257 0
-265 -266 257 0
265 266 257 -261 0
-265 266 -257 -261 0
-267 261 0
265 -267 257 0
-265 -267 -257 0
265 267 -257 -261 0
-265 267 257 -261 0
-268 265 0
-268 261 0
-268 -257 0
268 -265 257 -261 0
269 265 -261 0
-269 265 261 0
-270 265 0
269 -270 -261 0
-269 -270 261 0
269 270 -265 261 0
-269 270 -265 -261 0
-271 265 0
269 -271 261 0
-269 -271 -261 0
269 271 -265 -261 0
-269 271 -265 261 0
-272 265 0
-272 261 0
-272 -269 0
272 269 -265 -261 0
273 220 -252 0
273 -220 252 0
-273 220 252 0
-273 -220 -252 0
274 216 -248 0
274 -216 248 0
-274 216 248 0
-274 -216 -248 0
-275 220 0
-275 248 0
-275 252 -216 0
-275 -252 216 0
275 -220 252 216 -248 0
275 -220 -252 -216 -248 0
276 273 -248 0
-276 273 248 0
-277 273 0
276 -277 -248 0
-276 -277 248 0
276 277 -273 248 0
-276 277 -273 -248 0
-278 273 0
276 -278 248 0
-276 -278 -248 0
276 278 -273 -248 0
-276 278 -273 248 0
-279 273 0
-279 248 0
-279 -276 0
279 276 -273 -248 0
280 220 -273 0
280 -220 273 0
-280 220 273 0
-280 -220 -273 0
281 274 -276 0
281 -274 276 0
-281 274 276 0
-281 -274 -276 0
-282 220 0
-282 276 0
-282 273 -274 0
-282 -273 274 0
282 -220 273 274 -276 0
282 -220 -273 -274 -276 0
283 220 -281 0
283 -220 281 0
-283 220 281 0
-283 -220 -281 0
-284 220 0
-284 281 0
284 -220 -281 0
285 -220 283 0
-285 220 283 0
-286 283 0
285 -286 -220 0
-285 -286 220 0
285 286 220 -283 0
-285 286 -220 -283 0
-287 283 0
285 -287 220 0
-285 -287 -220 0
285 287 -220 -283 0
-285 287 220 -283 0
-288 285 0
-288 283 0
-288 -220 0
288 -285 220 -283 0
289 285 -283 0
-289 285 283 0
-290 285 0
289 -290 -283 0
-289 -290 283 0
289 290 -285 283 0
-289 290 -285 -283 0
-291 285 0
289 -291 283 0
-289 -291 -283 0
289 291 -285 -283 0
-289 291 -285 283 0
-292 285 0
-292 283 0
-292 -289 0
292 289 -285 -283 0
293 -285 289 0
-293 285 289 0
-294 289 0
293 -294 -285 0
-293 -294 285 0
293 294 285 -289 0
-293 294 -285 -289 0
-295 289 0
293 -295 285 0
-293 -295 -285 0
293 295 -285 -289 0
-293 295 285 -289 0
-296 293 0
-296 289 0
-296 -285 0
296 -293 285 -289 0
297 293 -289 0
-297 293 289 0
-298 293 0
297 -298 -289 0
-297 -298 289 0
297 298 -293 289 0
-297 298 -293 -289 0
-299 293 0
297 -299 289 0
-297 -299 -289 0
297 299 -293 -289 0
-297 299 -293 289 0
-300 293 0
-300 289 0
-300 -297 0
300 297 -293 -289 0
301 280 -276 0
301 -280 276 0
-301 280 276 0
-301 -280 -276 0
-302 280 0
-302 276 0
302 -280 -276 0
303 -280 301 0
-303 280 301 0
-304 301 0
303 -304 -280 0
-303 -304 280 0
303 304 280 -301 0
-303 304 -280 -301 0
-305 301 0
303 -305 280 0
-303 -305 -280 0
303 305 -280 -301 0
-303 305 280 -301 0
-306 303 0
-306 301 0
-306 -280 0
306 -303 280 -301 0
307 303 -301 0
-307 303 301 0
-308 303 0
307 -308 -301 0
-307 -308 301 0
307 308 -303 301 0
-307 308 -303 -301 0
-309 303 0
307 -309 301 0
-307 -309 -301 0
307 309 -303 -301 0
-307 309 -303 301 0
-310 303 0
-310 301 0
-310 -307 0
310 307 -303 -301 0
311 -303 307 0
-311 303 307 0
-312 307 0
311 -312 -303 0
-311 -312 303 0
311 312 303 -307 0
-311 312 -303 -307 0
-313 307 0
311 -313 303 0
-311 -313 -303 0
311 313 -303 -307 0
-311 313 303 -307 0
-314 311 0
-314 307 0
-314 -303 0
314 -311 303 -307 0
315 311 -307 0
-315 311 307 0
-316 311 0
315 -316 -307 0
-315 -316 307 0
315 316 -311 307 0
-315 316 -311 -307 0
-317 311 0
315 -317 307 0
-315 -317 -307 0
315 317 -311 -307 0
-315 317 -311 307 0
-318 311 0
-318 307 0
-318 -315 0
318 315 -311 -307 0
-265 0
-293 0
-297 0
-311 0
-315 0
